solution status: optimal solution found
objective value:                     138362.405042774
d11(0,0)                                            1 	(obj:0)
d11(2,3)                                            1 	(obj:0)
d11(2,4)                                            1 	(obj:0)
d11(2,5)                                            1 	(obj:0)
d11(3,7)                                            1 	(obj:0)
d11(3,8)                                            1 	(obj:0)
d11(3,9)                                            1 	(obj:0)
d11(3,10)                                           1 	(obj:0)
d11(3,11)                                           1 	(obj:0)
d11(3,12)                                           1 	(obj:0)
d11(3,13)                                           1 	(obj:0)
d11(3,14)                                           1 	(obj:0)
d11(4,15)                                           1 	(obj:0)
d11(4,16)                            1.00000000000001 	(obj:0)
d11(4,17)                                           1 	(obj:0)
d11(4,18)                            1.00000000000001 	(obj:0)
d11(4,19)                                           1 	(obj:0)
d11(4,20)                            1.00000000000001 	(obj:0)
d11(4,21)                                           1 	(obj:0)
d11(4,22)                            1.00000000000001 	(obj:0)
d11(4,23)                                           1 	(obj:0)
d11(4,25)                                           1 	(obj:0)
d11(4,27)                                           1 	(obj:0)
d11(4,28)                                           1 	(obj:0)
d11(4,29)                                           1 	(obj:0)
d11(4,30)                            1.00000000000001 	(obj:0)
d12(1,1)                                            1 	(obj:0)
d12(1,2)                                            1 	(obj:0)
d21(3,7)                                            1 	(obj:0)
d21(4,15)                                           1 	(obj:0)
d21(4,16)                                           1 	(obj:0)
d21(4,17)                                           1 	(obj:0)
d21(4,19)                                           1 	(obj:0)
d21(4,23)                                           1 	(obj:0)
d21(4,24)                                           1 	(obj:0)
d21(4,25)                                           1 	(obj:0)
d21(4,27)                                           1 	(obj:0)
d22(1,2)                                            1 	(obj:0)
d22(2,6)                                            1 	(obj:0)
STE(1,1)                             5627.24989888885 	(obj:0)
STE(0,0)                                         4725 	(obj:0)
STE(1,2)                             7045.05356243876 	(obj:0)
STE(2,3)                                         3591 	(obj:0)
STE(2,4)                             5249.24989888885 	(obj:0)
STE(2,5)                             5008.80366354991 	(obj:0)
STE(2,6)                             6667.05356243876 	(obj:0)
STE(3,7)                             1554.75010111118 	(obj:0)
STE(3,8)                                         3213 	(obj:0)
STE(3,9)                             3213.00000000003 	(obj:0)
STE(3,10)                            4871.24989888885 	(obj:0)
STE(3,11)                             2972.5537646611 	(obj:0)
STE(3,12)                            4630.80366354991 	(obj:0)
STE(3,13)                            4630.80366354994 	(obj:0)
STE(3,14)                            6289.05356243876 	(obj:0)
STE(4,15)                           -481.499797777664 	(obj:0)
STE(4,16)                            1176.75010111118 	(obj:0)
STE(4,17)                            1176.75010111115 	(obj:0)
STE(4,18)                                        2835 	(obj:0)
STE(4,19)                            1176.75010111118 	(obj:0)
STE(4,20)                            2835.00000000003 	(obj:0)
STE(4,21)                                        2835 	(obj:0)
STE(4,22)                            4493.24989888885 	(obj:0)
STE(4,23)                            936.303865772251 	(obj:0)
STE(4,24)                            2594.55376466102 	(obj:0)
STE(4,25)                            2594.55376466107 	(obj:0)
STE(4,26)                            4252.80366354991 	(obj:0)
STE(4,27)                             2594.5537646611 	(obj:0)
STE(4,28)                            4252.80366354994 	(obj:0)
STE(4,29)                            4252.80366354991 	(obj:0)
STE(4,30)                            5911.05356243876 	(obj:0)
y1(3,11)                             1492.42490899994 	(obj:0)
y1(3,13)                             1492.42490899994 	(obj:0)
y1(4,15)                             1492.42490899996 	(obj:0)
y1(4,17)                             1492.42490899996 	(obj:0)
y1(4,19)                             1492.42490899996 	(obj:0)
y1(4,21)                             1492.42490899996 	(obj:0)
y1(4,23)                             1492.42490899996 	(obj:0)
y1(4,25)                             1492.42490899996 	(obj:0)
y1(4,27)                             1492.42490899996 	(obj:0)
y1(4,29)                             1492.42490899996 	(obj:0)
WB(1)                                2018.55396057323 	(obj:0)
AVE(1)                               3265.91696791192 	(obj:0)
WB(2)                                3332.74178563731 	(obj:0)
AVE(2)                               3332.74178563731 	(obj:0)
AVE(3)                               3444.11697932125 	(obj:0)
AVE(4)                               3399.56511093778 	(obj:0)
WG(1)                                1247.36300733869 	(obj:10)
WG(3)                                3444.11697932125 	(obj:10)
WG(4)                                3399.56511093778 	(obj:10)
BG(2)                                4196.29249897959 	(obj:10)
BG(3)                                752.175519658316 	(obj:10)
BG(4)                                796.727388041812 	(obj:10)
y1(2,3)                              1492.42490899996 	(obj:0)
y1(2,5)                              1492.42490899996 	(obj:0)
y1(3,7)                              1492.42490899994 	(obj:0)
y1(3,9)                              1492.42490899994 	(obj:0)
y2(1,1)                              1347.63147251458 	(obj:0)
y2(1,2)                              2840.05638151448 	(obj:0)
